####################################################################### 
# 
# This file contains crystal structure data downloaded from the 
# Cambridge Structural Database (CSD) hosted by the Cambridge 
# Crystallographic Data Centre (CCDC).
# 
# Full information about CCDC data access policies and citation 
# guidelines are available at http://www.ccdc.cam.ac.uk/access/V1 
# 
# Audit and citation data items may have been added by the CCDC. 
# Please retain this information to preserve the provenance of 
# this file and to allow appropriate attribution of the data. 
# 
#######################################################################

data_ACSALA
#This CIF has been generated from an entry in the Cambridge Structural Database
_database_code_depnum_ccdc_archive 'CCDC 1101020'
_database_code_CSD               ACSALA
loop_
_citation_id
_citation_doi
_citation_year
1 10.1039/JR9640006036 1964
_audit_creation_method           'Created from the CSD'
_audit_update_record             
;
2023-01-19 downloaded from the CCDC.
;
_database_code_NBS               500586
_chemical_name_common            Aspirin
_chemical_formula_moiety         'C9 H8 O4'
_chemical_name_systematic        ' 2-acetoxybenzoic acid '
_chemical_properties_biological  
'analgesic, antipyretic and antiinflammatory agent'
_chemical_absolute_configuration unk
_diffrn_ambient_temperature      295
_exptl_crystal_density_diffrn    1.398
#These two values have been output from a single CSD field.
_refine_ls_R_factor_gt           0.108
_refine_ls_wR_factor_gt          0.108
_diffrn_radiation_probe          x-ray
_symmetry_cell_setting           monoclinic
_symmetry_space_group_name_H-M   'P 21/c'
_symmetry_Int_Tables_number      14
_space_group_name_Hall           '-P 2ybc'
loop_
_symmetry_equiv_pos_site_id
_symmetry_equiv_pos_as_xyz
1 x,y,z
2 -x,1/2+y,1/2-z
3 -x,-y,-z
4 x,1/2-y,1/2+z
_cell_length_a                   11.446
_cell_length_b                   6.596
_cell_length_c                   11.388
_cell_angle_alpha                90
_cell_angle_beta                 95.55
_cell_angle_gamma                90
_cell_volume                     855.739
_cell_formula_units_Z            4
loop_
_atom_site_label
_atom_site_type_symbol
_atom_site_fract_x
_atom_site_fract_y
_atom_site_fract_z
C1 C 0.15310 0.43650 0.06740
C2 C 0.24630 0.51180 0.00920
C3 C 0.29930 0.69470 0.04190
C4 C 0.26080 0.80440 0.13470
C5 C 0.16980 0.73160 0.19380
C6 C 0.11670 0.55050 0.16020
C7 C 0.08980 0.24170 0.03720
C8 C 0.36530 0.26110 -0.06310
C9 C 0.39700 0.16180 -0.17380
H1 H 0.07130 -0.00200 -0.08090
H2 H 0.36130 0.73790 0.00140
H3 H 0.30020 0.93970 0.16280
H4 H 0.14400 0.80580 0.25700
H5 H 0.05550 0.50710 0.19910
H6 H 0.30970 0.12060 -0.23610
H7 H 0.43090 0.03700 -0.16970
H8 H 0.42990 0.23030 -0.21620
O1 O 0.01060 0.18760 0.09660
O2 O 0.12030 0.13870 -0.05080
O3 O 0.28530 0.41200 -0.08840
O4 O 0.40310 0.21990 0.03430

#END
